60

 0   1   2   3   4   5   6   7   8   9   1   2   3   4   5   6   7   8   9  10   2   3   4   5   6   7   8   9  10  11   3   4   5   6   7   8   9  10  11  12   4   5   6   7   8   9  10  11  12  13   5   6   7   8   9  10  11  12  13  14  
 1   0   1   2   3   4   5   6   7   8   2   1   2   3   4   5   6   7   8   9   3   2   3   4   5   6   7   8   9  10   4   3   4   5   6   7   8   9  10  11   5   4   5   6   7   8   9  10  11  12   6   5   6   7   8   9  10  11  12  13  
 2   1   0   1   2   3   4   5   6   7   3   2   1   2   3   4   5   6   7   8   4   3   2   3   4   5   6   7   8   9   5   4   3   4   5   6   7   8   9  10   6   5   4   5   6   7   8   9  10  11   7   6   5   6   7   8   9  10  11  12  
 3   2   1   0   1   2   3   4   5   6   4   3   2   1   2   3   4   5   6   7   5   4   3   2   3   4   5   6   7   8   6   5   4   3   4   5   6   7   8   9   7   6   5   4   5   6   7   8   9  10   8   7   6   5   6   7   8   9  10  11  
 4   3   2   1   0   1   2   3   4   5   5   4   3   2   1   2   3   4   5   6   6   5   4   3   2   3   4   5   6   7   7   6   5   4   3   4   5   6   7   8   8   7   6   5   4   5   6   7   8   9   9   8   7   6   5   6   7   8   9  10  
 5   4   3   2   1   0   1   2   3   4   6   5   4   3   2   1   2   3   4   5   7   6   5   4   3   2   3   4   5   6   8   7   6   5   4   3   4   5   6   7   9   8   7   6   5   4   5   6   7   8  10   9   8   7   6   5   6   7   8   9  
 6   5   4   3   2   1   0   1   2   3   7   6   5   4   3   2   1   2   3   4   8   7   6   5   4   3   2   3   4   5   9   8   7   6   5   4   3   4   5   6  10   9   8   7   6   5   4   5   6   7  11  10   9   8   7   6   5   6   7   8  
 7   6   5   4   3   2   1   0   1   2   8   7   6   5   4   3   2   1   2   3   9   8   7   6   5   4   3   2   3   4  10   9   8   7   6   5   4   3   4   5  11  10   9   8   7   6   5   4   5   6  12  11  10   9   8   7   6   5   6   7  
 8   7   6   5   4   3   2   1   0   1   9   8   7   6   5   4   3   2   1   2  10   9   8   7   6   5   4   3   2   3  11  10   9   8   7   6   5   4   3   4  12  11  10   9   8   7   6   5   4   5  13  12  11  10   9   8   7   6   5   6  
 9   8   7   6   5   4   3   2   1   0  10   9   8   7   6   5   4   3   2   1  11  10   9   8   7   6   5   4   3   2  12  11  10   9   8   7   6   5   4   3  13  12  11  10   9   8   7   6   5   4  14  13  12  11  10   9   8   7   6   5  
 1   2   3   4   5   6   7   8   9  10   0   1   2   3   4   5   6   7   8   9   1   2   3   4   5   6   7   8   9  10   2   3   4   5   6   7   8   9  10  11   3   4   5   6   7   8   9  10  11  12   4   5   6   7   8   9  10  11  12  13  
 2   1   2   3   4   5   6   7   8   9   1   0   1   2   3   4   5   6   7   8   2   1   2   3   4   5   6   7   8   9   3   2   3   4   5   6   7   8   9  10   4   3   4   5   6   7   8   9  10  11   5   4   5   6   7   8   9  10  11  12  
 3   2   1   2   3   4   5   6   7   8   2   1   0   1   2   3   4   5   6   7   3   2   1   2   3   4   5   6   7   8   4   3   2   3   4   5   6   7   8   9   5   4   3   4   5   6   7   8   9  10   6   5   4   5   6   7   8   9  10  11  
 4   3   2   1   2   3   4   5   6   7   3   2   1   0   1   2   3   4   5   6   4   3   2   1   2   3   4   5   6   7   5   4   3   2   3   4   5   6   7   8   6   5   4   3   4   5   6   7   8   9   7   6   5   4   5   6   7   8   9  10  
 5   4   3   2   1   2   3   4   5   6   4   3   2   1   0   1   2   3   4   5   5   4   3   2   1   2   3   4   5   6   6   5   4   3   2   3   4   5   6   7   7   6   5   4   3   4   5   6   7   8   8   7   6   5   4   5   6   7   8   9  
 6   5   4   3   2   1   2   3   4   5   5   4   3   2   1   0   1   2   3   4   6   5   4   3   2   1   2   3   4   5   7   6   5   4   3   2   3   4   5   6   8   7   6   5   4   3   4   5   6   7   9   8   7   6   5   4   5   6   7   8  
 7   6   5   4   3   2   1   2   3   4   6   5   4   3   2   1   0   1   2   3   7   6   5   4   3   2   1   2   3   4   8   7   6   5   4   3   2   3   4   5   9   8   7   6   5   4   3   4   5   6  10   9   8   7   6   5   4   5   6   7  
 8   7   6   5   4   3   2   1   2   3   7   6   5   4   3   2   1   0   1   2   8   7   6   5   4   3   2   1   2   3   9   8   7   6   5   4   3   2   3   4  10   9   8   7   6   5   4   3   4   5  11  10   9   8   7   6   5   4   5   6  
 9   8   7   6   5   4   3   2   1   2   8   7   6   5   4   3   2   1   0   1   9   8   7   6   5   4   3   2   1   2  10   9   8   7   6   5   4   3   2   3  11  10   9   8   7   6   5   4   3   4  12  11  10   9   8   7   6   5   4   5  
10   9   8   7   6   5   4   3   2   1   9   8   7   6   5   4   3   2   1   0  10   9   8   7   6   5   4   3   2   1  11  10   9   8   7   6   5   4   3   2  12  11  10   9   8   7   6   5   4   3  13  12  11  10   9   8   7   6   5   4  
 2   3   4   5   6   7   8   9  10  11   1   2   3   4   5   6   7   8   9  10   0   1   2   3   4   5   6   7   8   9   1   2   3   4   5   6   7   8   9  10   2   3   4   5   6   7   8   9  10  11   3   4   5   6   7   8   9  10  11  12  
 3   2   3   4   5   6   7   8   9  10   2   1   2   3   4   5   6   7   8   9   1   0   1   2   3   4   5   6   7   8   2   1   2   3   4   5   6   7   8   9   3   2   3   4   5   6   7   8   9  10   4   3   4   5   6   7   8   9  10  11  
 4   3   2   3   4   5   6   7   8   9   3   2   1   2   3   4   5   6   7   8   2   1   0   1   2   3   4   5   6   7   3   2   1   2   3   4   5   6   7   8   4   3   2   3   4   5   6   7   8   9   5   4   3   4   5   6   7   8   9  10  
 5   4   3   2   3   4   5   6   7   8   4   3   2   1   2   3   4   5   6   7   3   2   1   0   1   2   3   4   5   6   4   3   2   1   2   3   4   5   6   7   5   4   3   2   3   4   5   6   7   8   6   5   4   3   4   5   6   7   8   9  
 6   5   4   3   2   3   4   5   6   7   5   4   3   2   1   2   3   4   5   6   4   3   2   1   0   1   2   3   4   5   5   4   3   2   1   2   3   4   5   6   6   5   4   3   2   3   4   5   6   7   7   6   5   4   3   4   5   6   7   8  
 7   6   5   4   3   2   3   4   5   6   6   5   4   3   2   1   2   3   4   5   5   4   3   2   1   0   1   2   3   4   6   5   4   3   2   1   2   3   4   5   7   6   5   4   3   2   3   4   5   6   8   7   6   5   4   3   4   5   6   7  
 8   7   6   5   4   3   2   3   4   5   7   6   5   4   3   2   1   2   3   4   6   5   4   3   2   1   0   1   2   3   7   6   5   4   3   2   1   2   3   4   8   7   6   5   4   3   2   3   4   5   9   8   7   6   5   4   3   4   5   6  
 9   8   7   6   5   4   3   2   3   4   8   7   6   5   4   3   2   1   2   3   7   6   5   4   3   2   1   0   1   2   8   7   6   5   4   3   2   1   2   3   9   8   7   6   5   4   3   2   3   4  10   9   8   7   6   5   4   3   4   5  
10   9   8   7   6   5   4   3   2   3   9   8   7   6   5   4   3   2   1   2   8   7   6   5   4   3   2   1   0   1   9   8   7   6   5   4   3   2   1   2  10   9   8   7   6   5   4   3   2   3  11  10   9   8   7   6   5   4   3   4  
11  10   9   8   7   6   5   4   3   2  10   9   8   7   6   5   4   3   2   1   9   8   7   6   5   4   3   2   1   0  10   9   8   7   6   5   4   3   2   1  11  10   9   8   7   6   5   4   3   2  12  11  10   9   8   7   6   5   4   3  
 3   4   5   6   7   8   9  10  11  12   2   3   4   5   6   7   8   9  10  11   1   2   3   4   5   6   7   8   9  10   0   1   2   3   4   5   6   7   8   9   1   2   3   4   5   6   7   8   9  10   2   3   4   5   6   7   8   9  10  11  
 4   3   4   5   6   7   8   9  10  11   3   2   3   4   5   6   7   8   9  10   2   1   2   3   4   5   6   7   8   9   1   0   1   2   3   4   5   6   7   8   2   1   2   3   4   5   6   7   8   9   3   2   3   4   5   6   7   8   9  10  
 5   4   3   4   5   6   7   8   9  10   4   3   2   3   4   5   6   7   8   9   3   2   1   2   3   4   5   6   7   8   2   1   0   1   2   3   4   5   6   7   3   2   1   2   3   4   5   6   7   8   4   3   2   3   4   5   6   7   8   9  
 6   5   4   3   4   5   6   7   8   9   5   4   3   2   3   4   5   6   7   8   4   3   2   1   2   3   4   5   6   7   3   2   1   0   1   2   3   4   5   6   4   3   2   1   2   3   4   5   6   7   5   4   3   2   3   4   5   6   7   8  
 7   6   5   4   3   4   5   6   7   8   6   5   4   3   2   3   4   5   6   7   5   4   3   2   1   2   3   4   5   6   4   3   2   1   0   1   2   3   4   5   5   4   3   2   1   2   3   4   5   6   6   5   4   3   2   3   4   5   6   7  
 8   7   6   5   4   3   4   5   6   7   7   6   5   4   3   2   3   4   5   6   6   5   4   3   2   1   2   3   4   5   5   4   3   2   1   0   1   2   3   4   6   5   4   3   2   1   2   3   4   5   7   6   5   4   3   2   3   4   5   6  
 9   8   7   6   5   4   3   4   5   6   8   7   6   5   4   3   2   3   4   5   7   6   5   4   3   2   1   2   3   4   6   5   4   3   2   1   0   1   2   3   7   6   5   4   3   2   1   2   3   4   8   7   6   5   4   3   2   3   4   5  
10   9   8   7   6   5   4   3   4   5   9   8   7   6   5   4   3   2   3   4   8   7   6   5   4   3   2   1   2   3   7   6   5   4   3   2   1   0   1   2   8   7   6   5   4   3   2   1   2   3   9   8   7   6   5   4   3   2   3   4  
11  10   9   8   7   6   5   4   3   4  10   9   8   7   6   5   4   3   2   3   9   8   7   6   5   4   3   2   1   2   8   7   6   5   4   3   2   1   0   1   9   8   7   6   5   4   3   2   1   2  10   9   8   7   6   5   4   3   2   3  
12  11  10   9   8   7   6   5   4   3  11  10   9   8   7   6   5   4   3   2  10   9   8   7   6   5   4   3   2   1   9   8   7   6   5   4   3   2   1   0  10   9   8   7   6   5   4   3   2   1  11  10   9   8   7   6   5   4   3   2  
 4   5   6   7   8   9  10  11  12  13   3   4   5   6   7   8   9  10  11  12   2   3   4   5   6   7   8   9  10  11   1   2   3   4   5   6   7   8   9  10   0   1   2   3   4   5   6   7   8   9   1   2   3   4   5   6   7   8   9  10  
 5   4   5   6   7   8   9  10  11  12   4   3   4   5   6   7   8   9  10  11   3   2   3   4   5   6   7   8   9  10   2   1   2   3   4   5   6   7   8   9   1   0   1   2   3   4   5   6   7   8   2   1   2   3   4   5   6   7   8   9  
 6   5   4   5   6   7   8   9  10  11   5   4   3   4   5   6   7   8   9  10   4   3   2   3   4   5   6   7   8   9   3   2   1   2   3   4   5   6   7   8   2   1   0   1   2   3   4   5   6   7   3   2   1   2   3   4   5   6   7   8  
 7   6   5   4   5   6   7   8   9  10   6   5   4   3   4   5   6   7   8   9   5   4   3   2   3   4   5   6   7   8   4   3   2   1   2   3   4   5   6   7   3   2   1   0   1   2   3   4   5   6   4   3   2   1   2   3   4   5   6   7  
 8   7   6   5   4   5   6   7   8   9   7   6   5   4   3   4   5   6   7   8   6   5   4   3   2   3   4   5   6   7   5   4   3   2   1   2   3   4   5   6   4   3   2   1   0   1   2   3   4   5   5   4   3   2   1   2   3   4   5   6  
 9   8   7   6   5   4   5   6   7   8   8   7   6   5   4   3   4   5   6   7   7   6   5   4   3   2   3   4   5   6   6   5   4   3   2   1   2   3   4   5   5   4   3   2   1   0   1   2   3   4   6   5   4   3   2   1   2   3   4   5  
10   9   8   7   6   5   4   5   6   7   9   8   7   6   5   4   3   4   5   6   8   7   6   5   4   3   2   3   4   5   7   6   5   4   3   2   1   2   3   4   6   5   4   3   2   1   0   1   2   3   7   6   5   4   3   2   1   2   3   4  
11  10   9   8   7   6   5   4   5   6  10   9   8   7   6   5   4   3   4   5   9   8   7   6   5   4   3   2   3   4   8   7   6   5   4   3   2   1   2   3   7   6   5   4   3   2   1   0   1   2   8   7   6   5   4   3   2   1   2   3  
12  11  10   9   8   7   6   5   4   5  11  10   9   8   7   6   5   4   3   4  10   9   8   7   6   5   4   3   2   3   9   8   7   6   5   4   3   2   1   2   8   7   6   5   4   3   2   1   0   1   9   8   7   6   5   4   3   2   1   2  
13  12  11  10   9   8   7   6   5   4  12  11  10   9   8   7   6   5   4   3  11  10   9   8   7   6   5   4   3   2  10   9   8   7   6   5   4   3   2   1   9   8   7   6   5   4   3   2   1   0  10   9   8   7   6   5   4   3   2   1  
 5   6   7   8   9  10  11  12  13  14   4   5   6   7   8   9  10  11  12  13   3   4   5   6   7   8   9  10  11  12   2   3   4   5   6   7   8   9  10  11   1   2   3   4   5   6   7   8   9  10   0   1   2   3   4   5   6   7   8   9  
 6   5   6   7   8   9  10  11  12  13   5   4   5   6   7   8   9  10  11  12   4   3   4   5   6   7   8   9  10  11   3   2   3   4   5   6   7   8   9  10   2   1   2   3   4   5   6   7   8   9   1   0   1   2   3   4   5   6   7   8  
 7   6   5   6   7   8   9  10  11  12   6   5   4   5   6   7   8   9  10  11   5   4   3   4   5   6   7   8   9  10   4   3   2   3   4   5   6   7   8   9   3   2   1   2   3   4   5   6   7   8   2   1   0   1   2   3   4   5   6   7  
 8   7   6   5   6   7   8   9  10  11   7   6   5   4   5   6   7   8   9  10   6   5   4   3   4   5   6   7   8   9   5   4   3   2   3   4   5   6   7   8   4   3   2   1   2   3   4   5   6   7   3   2   1   0   1   2   3   4   5   6  
 9   8   7   6   5   6   7   8   9  10   8   7   6   5   4   5   6   7   8   9   7   6   5   4   3   4   5   6   7   8   6   5   4   3   2   3   4   5   6   7   5   4   3   2   1   2   3   4   5   6   4   3   2   1   0   1   2   3   4   5  
10   9   8   7   6   5   6   7   8   9   9   8   7   6   5   4   5   6   7   8   8   7   6   5   4   3   4   5   6   7   7   6   5   4   3   2   3   4   5   6   6   5   4   3   2   1   2   3   4   5   5   4   3   2   1   0   1   2   3   4  
11  10   9   8   7   6   5   6   7   8  10   9   8   7   6   5   4   5   6   7   9   8   7   6   5   4   3   4   5   6   8   7   6   5   4   3   2   3   4   5   7   6   5   4   3   2   1   2   3   4   6   5   4   3   2   1   0   1   2   3  
12  11  10   9   8   7   6   5   6   7  11  10   9   8   7   6   5   4   5   6  10   9   8   7   6   5   4   3   4   5   9   8   7   6   5   4   3   2   3   4   8   7   6   5   4   3   2   1   2   3   7   6   5   4   3   2   1   0   1   2  
13  12  11  10   9   8   7   6   5   6  12  11  10   9   8   7   6   5   4   5  11  10   9   8   7   6   5   4   3   4  10   9   8   7   6   5   4   3   2   3   9   8   7   6   5   4   3   2   1   2   8   7   6   5   4   3   2   1   0   1  
14  13  12  11  10   9   8   7   6   5  13  12  11  10   9   8   7   6   5   4  12  11  10   9   8   7   6   5   4   3  11  10   9   8   7   6   5   4   3   2  10   9   8   7   6   5   4   3   2   1   9   8   7   6   5   4   3   2   1   0  

 0   0   1   4   1   0   4   0  14   1   1  80   1   9   0   7  22  91   1   2   0   1  41  22   7   1  43   0   1   1   0   0   1   1   2  11   1  16   1   0  24   2   1   1  28   6   9   1  20   0   0   0   0   1   0   1   6  86   3   0  
 1   0   1  36   0   1  54  16  34  25   1   2   1   1  24   0   0   1   4   3   1   1   1  49  12  33  34   1  19   0   5   0   0   2   1   0   1   0  39   3   0   6   1  60  40   1   5   2   0   1   1   1   2  45  42  11   1   7   2   0  
 1   1   0  16   1   3   0   0   1   1   1   1   5   0   0  65  18   1   1   1   0   7   0  94  18   0   1  19   1  10   1   1   1  46   0   2   1   0   1   1   1   0   1  16   1   0   0   0  40  44   0   1   1   1  27   0  23  87   8   6  
 1  17   1   0   0   0   1   1   0   0   0  10   1  20  79   1   0  43   1   1   0   2   1   0   0   0  53   3   1   1   0   0   1   1  49   5   1   0   1   1  32   1  95  58   0   0   0   0   0  93   0   1   1   1  24   0   1   1   1   0  
 1   5  31   1   0   0  13   1   1   1   1   1   1   1   1   2   3   0   0   0   4  23   0   1   0   0   1   0   0   1  36   2   1   0   4   0   1   0   0   2   1   0   0   6   1   0   0   0   0  35   0   1  80   1   1  25   1   0   0   1  
78   0  82   1   8   0   3   1   0   1   1   1  18   1   0   4  63   1  55   1   7   0   1   0  26  68  18   1   0   7   1   1   0   1   1  12  78   0  70   1   1  77   4   6   0   1   3   3   0   1   0   3   1   1   1   5  64   1   1  34  
 0  16   1   0   0  57   0   1   1   1  42   1   0  25   1   1   0   1   0   0   1   1   1   0   0   0   2   0   0   0   1   0   1   0   4   0   0   1   1  52   0   1   0   0  29   0   1   1  76  40   1   2   5  41   1   2   6  16  19   1  
56  71   0   1   0   1   0   0   0   0   1   1   1  64   1   0   1   1   0  99   0  40   3   1   1   0   0   0  49   1   0   5   3   1   0   1   1   1   0   0  68   5   0   4   4   1   3   1   1  87  22   0  13   1   1  28   0   0   0   1  
 1   1  14   1   1   1   1   1   0  18   0   1   4  15   6  28  63   0   2   1   1   1   0   0   2  21   3  12   1   0   2  17   1   8   3   1  17   0   3   0   3   0   0  87   1   1   1  60   1   1   1  57  61   1  53   1   1   0  11  46  
 0   0   0  18   0   2   0   1   1   0  73   0   0   1  32   0   1   1  31   1   1   1   0   0   0   1   0   0   1   4   0   1  11   1   0   0  17   1   1   0   5  12   1   1   0   1   0   1  29   1   1  74   1   4   0   1  91   1   4   1  
 0   0  32   1   0   8  38  65  45   2   0   1   0   0   1  13  67  48   8   1   1   1   0   0  98   1   1   0   0   0   1   1   0   1   1   1   0   1   0  24   3  62   1   1   1   0   0  33   1   4  67   1  70   1  88   1   6   1  27   2  
83   1   1  57   0   1   0   1  14  71   0   0   1   0   1   2  19   3   6   1  17   1   0   0   0  89  92   0  10   1  72  86   1   0  70  19   3  69   0  54   1   0   1   7  22  21   1  72   4   1  51   1  59   0   0   1  69   1   1   1  
 1   0  40   0  15   1   1   1   1   0   3   1   0   0   0   7   1   1  81   0   0  51   1   1   0  51   1   0   9   0  17   6  86   1   1   0   0   1  99   0   1  55  14   1   0   0   1   1  30  44   0  10   3   1   2   0   3   1   1   1  
73  27   1   1   1   1  96   0  22   2   1   1   1   0  36   0   1   0  12   1   1   0  91   1   1   0   1   3   1   9   1   0   1   0   5   1   1   0  17   0   0   0   6   1   0   6   2   0   0   0   0   0   4   3  10   1   1   1   2  82  
 0   0   1  56   1   0   4   1  88   1   0   1   0  26   0   6  49   9  17  50   0   0   1   0  79   2   0   0   0   0   1   3   1   1   1   0   0   0  15   1   2   1  14  42  14   1   1   0   1   1  68   3   2   2   0   1   0   0   0   1  
 1   3  10   1   1   0   1   1   1   1   1  77   0   6   0   0   2   1   1   4   0   0  68  21   1  47  97  14  22   7   1   0   0   1  85  37   0   1   0   1   8   0   1   1   0  82   1   7   8  52  47   0   9  44   1   1   1   1   1   1  
 1  54   0   0   0   1   1  51   0   0   1   0   1   7   1   1   0   3   0  10   2   8  83  21   1   0   0   1   0  37   0   5   5   1   3   0   0   1   0   1   1   1   0   0   0   1   6   0   1  69   3  21   0   0   1   0  35   0   0   3  
 0   0  91   1   0   0   1   1   1   2   0   0   1   0   0   0  32   0   1   0   0  34   1   7   1   1   1   1   0   3   1   1   1   1  17   1   7  18   0   1   0   0   0   1   0   1   0   1   1   5   0   2   1  16   0   7  28   3   1   0  
 0  44   8  41   0   3   6  13  89   1   1  24   1   1   0  11   1  62   0  14   1   0   0   3   0   1   0   1   1   0   0   0   1   1   1   1  11   0   1   0   1   0   1   1  10   2   0  18  15   0  48   1   1  15   1   1   0  92   1   1  
 1   1   1   1   0  18   2  35   1   0   2   0   1   5   1   6   1   5   1   0  52   4  37  45  67   1  14   1  84   0   1   1   1   0   7   1  29   1   1   1   1  39  22   1   0   1   0  35   0   1  78   1   1   1   1   1   1  21   1   4  
 1   0   2  11   1   0   1   0   1   1   1   1  11   1   0   1   1  55   0   1   0   0  50   0   0   0   0   1   1   1  37   0   1   0  23   1   9   1   1   1   0  22  91   1  83  24   1   1   1   0   1   1  75  96   0   1   1  16  29  23  
 1   1   1   1   0   0   2   1   1   1   0  14   0  12   0  59   1  62   0   0   0   0   1   0  40   3   0   1  59  58   0   1   1  72  11  97   0   3   1   1   0   1   1   1   5   0   1   1   0   1  16   1   1   0  87   0   1   1   0   1  
52  22   0  49   1   0  11   0   2  78   1  46  44   0   0  13  90   0   1   0  36   0   0   1   1   1  29   0   0   0   1   0   0   1  19   0   1   1   0   2   0  74   1  53  10   1   0  34   1  48   0  21  46   1   0   1   1   0   0   1  
 0   1   1   0   0   1   1   1   1   1   8   0   1   0   0  57  56   1   0   3   1   0   1   0  29   4  39  25   0   4   0   0   1   1   1   1  92   0   1   0   1  31   1   1  55  92   1   1   0   1   1  13   1   1   1  20   0   3   1   0  
 1  11  10   1  25   1   0   1  63   0   1   6   0   1   5  13   1   1   8   1  10   1   0   1   0   1   1   4   7   1   2  28  16   1   0   0   0   1   2   1   4   1  75  62  79   1   8  43   2   1   5   0   0   0   1  27   2   1   1   1  
 1   1   1   1  98   0  44   0   1   1   0  57  35   0   6  26  44   1   1   0  43  24   3   0   1   0  23   0   2   1   1   0   0   0   0  21   1  16   8  30   1   0   0  50   1   0   0   1   1   0   1   1   1  92   1  52   1  33   0   1  
27   1   0   0   0   0   6   2   0   1   1   9  17   0  34   0  12   0   0  12   6   1   5  62   0   1   0   1   0   1   1  42  19  97  56   0  23   1   1   1   1   0   1   0   1   0   9   0   0   1  15  31  90  11   1   1   1   1  31  45  
 0   1   0   6  25   1  26   0   0   0   1   3  26  64   3   1  44   0   1   1  85   2   0  25   0   1   1   0  81   1   0  16   0   1   0   0   0  67   0   1   0  82   1   0   0   2   1  38   1   1   0  54  69  34   1  16   1   1  74  64  
 1   1   1  22  32   1   1  15   0   0   1  28   0   0   1   1   1   0   1   0   0   1   0   0  84   1   1  53   0   1   0   0   0   1   1   1   4   5   1   0  59   1   1   1   1   0   3   0   1   0   0   0   0  23  18   3   1  94  16   8  
 1   0   0   1   1  14   1   1   1   1   1   2  36   0  31  56   0   1   3   1   1   9   0   1   0   1   0   1   0   0   1   1  49   7  64  79   1   0   1   1   1   0   1   5  15   1  71   0   1   1   1   0   0   1   1  30  25   1   0   1  
 1   1   0   0   1   0   1  82   0   1   1   7   0   1  22   1   1   5   1   1   1   0   1   1   1   1   0   0   1   0   0   1  41   1   6   0   1   8   1   0   1   1   2   1   1   1   0   5  41   3  42   0   5   1   1   0   0   1   1   1  
 0   1   1  18  24  53   2   0  14   1   0   1   4  71   7   1   2   1   1   1   1  61   0   4   0   0   1   0  24   0   1   0   1   1   1   0   0   1   0   1   0   0   0   0   1  33   1   1   1   0   5   1   1   0   0   1  75   0  25   1  
 1   1   0  39  15   3   1   1   0  19   8   1   0   1  40   1  50   1   1   2   2   1  14  33   1   0   1   1   1  13  55   1   0   0   0   0   6  29   1   1   0   1   0   0   1   0   8   0  80   1  14   1   1   1  38   0  26   1   0   1  
 0   1   1   0   0   1   1   1  94  62   0   1   0   0   0   1   0   0  38  25   0  49  14  36  15   1  34   0  14   1   0   1   0   0   1   0   1   7   3   1   0   0   0   1  12   0   0  23   1   1  11  71  53   1   1   0  32   0   1   0  
38   4  38   1   6   1   0  20   7   1   1   0  28   1   1   1   3   1  12   1  24   1  15   1   7   2   1  26   0   1  15   0  15   1   0  63   1  75   1  42   1   1  84   0  25   0   0   1   1   1   1   7   8   1   0   1   0   0   6   0  
 1   5   4  11  26   1   0  72   1   1   1   1   0   0   8  45  80   4   1   4   1   1   0  38   0  81   8   1   0  55   1   1   3  44   7   0  44  28   2   1  10   1   0   1   1   9   0   2   0  23  65  34   0  16   1   0  66   1   0  58  
 0   1  45   0   0   0  38  12   0   1   0   1   0   0   1  24   1  55  18   1   9   1  14  56   1   1  73   1   0   1   0   1   2   1   0   0   0   1   1   0   1  35   0   1   1   1   1   0   0   1   1   1   1   1   1   0   2   6   0  50  
 1   0   1   0  16   1   0   0   1   1  44   2   0   0   4   6   0   1   1  13   0   7  71  12   4   0   1   1   1   1   1  11  96   3   1  13   1   0   2   1   0  57   0  12   0  27   1   1   0   9  26   5   0   1   0   1   0   9   1   1  
16   0   2   1  24   0   1   1   1   1   0   0   0   0  66   1   0   1  13   1   0   0   0   0   0   1  37   1   1  20   1   1   1  52   1   1   0   3   0   1   0   1   1  25   1   0   0   1  49   0   7   1   1  48   0   1   0   6   1   1  
 1   2   0   3   0   0   1  17   1   6  23   1   1   1   6   1   1   0  82   0   1   0   0   1   0   1   2   0   0   0   0   1   0  19  47   0  52   0   0   0  60  86   0   5   1   1   0   0   1   1   0  26   1   3   8   3   1   1  15   1  
 0   0   2   0   1   1   1   1   1   3   0   1  32  17   0   0   2   1   0   6  15   0   0   1   0   1   1   0  10   1   1   6   9   0   0  49  17   1   0   1   0   0   0   1  90   1   1  23   0   1   0   1   0   1   1   3   1   1   0   1  
97   0   6   1  15   0   0   1   0   1   1   0   2   0   0   5   0   5  14   0  53  15   0  29   2   0   1   2   2   0  23  58   0  87   1   1   0   1   1  16   1   0  86  42  29  13   0   0   0   1   0   0   0  71   1   9   0   7  21   0  
40   1   0   0   1  13   1   1  40   0   1   6   5   0   0   1   0   0   1   0   0  13   4   1  64   5  46  63   0   0   1   0   1   1   0   1  15   1   0  29  88   1   0   0   1  13  27  76   1   0   1   1   0   1  94   4   1   1   8   4  
 1   1   0   4  64   0   1   1   1   1   4   0  12  96   1   1   0   1   1   0  53   0   0   2  57   3   0  33   1   1   5  27   1   0   0   0   0   0   0   0  28  32   6   0  28   1   0   1   0   1  87   1   0   0   1   1   1   1   1  19  
 0   0   1   0   1  34   0  42   2   0  74   0   3   1  69   1   0  46   1  23  14   1   0   1   1   0   0  19   0   0   1   4   0   0   0   0   1   1   0   0  19   0   4  22   0   1   1   1   1  29  22   1   1   0   0   0  51  46  17   7  
 1   1   6   1  58   1   1   0   0  60  36   1   0   1   0   1   0   1   0   0   0   1   1   0  55  39  17   0   1   0   0  24   0   1   7   2  54   0   1   3   1   1   3   1   1   0   4   1   7   1   0   1  90   1   0   3   8   0   1   1  
 1  18  22   1   1   1   1   0   1   1   0   0   1   0  29   0   1   5  29   1   0   0   8   0  96   1   7   9   1   0   1   0   1   0   1  11  47  89   1   0   3  71   0   1   0   0   0   1   1   1   0  28   1   1   1   2   1  91  77  29  
 1   1  40   0   1   0  72   1   1   4   1   0   4   0  26   3   1  13   1   6   1   1   0   1   0   1  16   0  72   2  13   1   0   1   1   0   5   0   0   0   0   1   0   1  20   0   0   0  37  61  15   0   0   6   1   2   0  49  42   1  
 1  10   4   3   0  55   1   1   6  16   1   1   1   1   3   1   1   1   0   1   0   0   1   0  41  10   1  70   1   4  10   1   0   1   1   0  12   0  17  12   1   0   1   1  58   7   1   0   0  40   1   1   0  11   1   0  17   1   0  34  
 0   0   1   1   1   0   1   1   1   0   0   2   1   0   0  82  10   1   0  30   1   1   3  49  93   5   4   1   1   1   0  19   0   0  46   8   0   0   1   1   1   1   5   0   1   1   3   0  43   0   1   0   8   0   1   0   0  12  57   1  
 0   1   1   0   1   1   1  15   0   1   0   6   0   0   1   1   0   2   0   1  72   0  46   1   0   1   1   1   0   1   0   2   0  69   1   1   1   1   5   1   0   1   0   0   1   1  10   0   0   1   0   0  11  20   8  11   0   1   1  14  
11   0   5   1  10   1  43  10   0   0   0  11   0   0   0   1  14  34   0   0   1   1   1  18   1   0   1   1   0  12   1   1   1   2   0  68   0   0   1   1  15   1   3   1   1  56   0   1   1   1   1   0   1   1   1  12   1   0   1   1  
 0   1   1  17   1   1  13   3   5   0   0   4   0   0   2   0   1   1   4   0   1   0  78   1   0   1  11   1   0  73   1   0  35   1   1   1  66   1   1   1   0   1   0   0  10   6   3   0   1   1   0   1   0   2   0   0  72   0   3  27  
 1   1   0  34   0  60   0   0   0   0   0   0   0   5   1   0   0   1   6   1  38   1   1   0   4   0   2   1   0   0   1   8   5  17   1  53  12   1  41  85   0  29   1  22   1   1   0   0   0   0   1  43   1   0   4  25   0  28  36   1  
 0  18   0  38  19   1   0   1   1   1   0   0  88  40   1  13   1  27  53   1   4  28   1   1   1   1  63   2   0   0   2   1   0   0   1   1   1   1   1   1   1  82   1   0   3   3   0   1   1   7   4   4   1   1   0   0  34   1   1   0  
 0   8   1   0   1   1   3   1   7   1   1   1   1   0   1   0   0  21   1  29  87  64   1  18   2   0  16  68   0  23   1   1   0   0   6   0   0  84   0   0   0  16   1  10   0   1   0  16   1  87   1   0   0   4  49   0  95   7   1   0  
 1   2   0   1   0   0   1  57   2   1   0   1  23  17   0  45   0  20   1   1   0   0  47  48   2   1   0   0   1   0   0   1   0   1  14  33   0  26  78  57   0   0   1   1   0   1   2   0  43   0   0   1   1   1   6  51   0   0  52   1  
 1   1   5   0   1   0  66   0  14   1   1  64   1   1   9   1   1   1   2  67   0   1   2   1   0  43   0  85   0   1   1   1   0   1   1   0   1   1  45   1   1   1   1   3  12   0   0   3   0   0   1   1   0   1   0   0  14   0   1   1  
 1   9   1   0   3  17   1   1   4   1   1   1   2  13   0   0   1   0   1   1   1  27   3   1  14   0  10   1   0   1  93   0  69   0   1   1   0   1   1   1   1  59   1   1   7   1  36   0   9   1   0   0  28   1   1   1   1   0   0   7  
 0   0   1  80  11   1  46   0  70   1   1  30   0   1  43   2   9   1   0   1   1  17   0  14  56   6   0   1  22   1  27   1   0   1   0  14   0   0   0   0   1   5  56   0   2   3   1  15   4   1   1   0   1   0  61   0  15   0   0   0  
